
Gurobi 11.0.3 (linux64) logging started Thu Nov 21 16:48:08 2024

Set parameter LogFile to value "/home/yihong/Coding/OR_SUC/SUC_results_bigM100000_thread4/case24_ieee_rts_theta0.5_epsilon0.025_gurobi_seed280000_num_gen100_N_WDR100_load_scaling_factor1_exact_T12quadra_cost.txt"
Set parameter TimeLimit to value 3600
Gurobi Optimizer version 11.0.3 build v11.0.3rc0 (linux64 - "Ubuntu 20.04.6 LTS")

CPU model: AMD EPYC 7532 32-Core Processor, instruction set [SSE2|AVX|AVX2]
Thread count: 64 physical cores, 128 logical processors, using up to 4 threads

Optimize a model with 25823 rows, 15081 columns and 355770 nonzeros
Model fingerprint: 0x18a48708
Model has 1200 quadratic constraints
Variable types: 13781 continuous, 1300 integer (1300 binary)
Coefficient statistics:
  Matrix range     [7e-05, 1e+05]
  QMatrix range    [2e-03, 8e-03]
  QLMatrix range   [2e-01, 6e+01]
  Objective range  [1e+00, 1e+00]
  Bounds range     [1e+00, 1e+00]
  RHS range        [1e+00, 1e+05]
Presolve removed 20953 rows and 6626 columns
Presolve time: 0.13s
Presolved: 4870 rows, 8455 columns, 32834 nonzeros
Presolved model has 1200 quadratic constraint(s)
Variable types: 7215 continuous, 1240 integer (1240 binary)

Root relaxation: objective 3.548200e+04, 3723 iterations, 0.06 seconds (0.07 work units)

    Nodes    |    Current Node    |     Objective Bounds      |     Work
 Expl Unexpl |  Obj  Depth IntInf | Incumbent    BestBd   Gap | It/Node Time

     0     0 35481.9968    0    3          - 35481.9968      -     -    0s
     0     0 230874.938    0  247          - 230874.938      -     -    0s
     0     0 354756.320    0  211          - 354756.320      -     -    0s
     0     0 354784.180    0  211          - 354784.180      -     -    0s
     0     0 355033.645    0  172          - 355033.645      -     -    0s
     0     0 355048.408    0  182          - 355048.408      -     -    0s
     0     0 355048.422    0  182          - 355048.422      -     -    0s
     0     2 355048.434    0  182          - 355048.434      -     -    3s
H  201   218                    355292.29692 355065.504  0.06%  21.3    4s
*  201   218              74    355292.29692 355065.504  0.06%  21.3    4s

Cutting planes:
  Gomory: 79
  Implied bound: 257
  MIR: 70
  Flow cover: 68

Explored 221 nodes (15624 simplex iterations) in 4.62 seconds (3.99 work units)
Thread count was 4 (of 128 available processors)

Solution count 2: 355292 355292 

Optimal solution found (tolerance 1.00e-03)
Warning: max constraint violation (1.9494e-07) exceeds tolerance
Best objective 3.552922969180e+05, best bound 3.550655036351e+05, gap 0.0638%
